datasets/2-dimensional/CL_08_25_04.vbp
2
150 150 
25
88 22 30
79 32 72
43 68 4
53 63 88
45 70 54
65 46 64
23 95 90
97 19 26
91 25 94
77 38 28
73 39 72
42 75 49
56 62 54
53 60 19
77 37 28
40 77 61
38 72 84
38 78 23
28 83 67
28 85 53
82 32 54
21 89 16
23 88 9
52 65 54
99 17 77
