datasets/2-dimensional/CL_08_25_04.txt
150 150 
0 30 88 22 
1 72 79 32 
2 4 43 68 
3 88 53 63 
4 54 45 70 
5 64 65 46 
6 90 23 95 
7 26 97 19 
8 94 91 25 
9 28 77 38 
10 72 73 39 
11 49 42 75 
12 54 56 62 
13 19 53 60 
14 28 77 37 
15 61 40 77 
16 84 38 72 
17 23 38 78 
18 67 28 83 
19 53 28 85 
20 54 82 32 
21 16 21 89 
22 9 23 88 
23 54 52 65 
24 77 99 17 
